/* Objective function */
min: +cost.0;

/* Constraints */
+0.0161270052195 size.L1.0 +14 mr.L1.0 >= 3.44108581543;
+0.0161270052195 size.L2i.0 +14 mr.L2.0 >= 3.44108581543;
+0.0086739063263 size.L1.0 +13 mr.L1.0 >= 2.79201889038;
+0.0086739063263 size.L2i.0 +13 mr.L2.0 >= 2.79201889038;
+0.0136383026838 size.L1.0 +30 mr.L1.0 >= 5.95198440552;
+0.0136383026838 size.L2i.0 +30 mr.L2.0 >= 5.95198440552;
+0.0089858919382 size.L1.0 +32 mr.L1.0 >= 5.75368881226;
+0.0089858919382 size.L2i.0 +32 mr.L2.0 >= 5.75368881226;
+0.0110788047314 size.L1.0 +61 mr.L1.0 >= 10.1269416809;
+0.0110788047314 size.L2i.0 +61 mr.L2.0 >= 10.1269416809;
+0.00761259347201 size.L1.0 +66 mr.L1.0 >= 10.0821552277;
+0.00761259347201 size.L2i.0 +66 mr.L2.0 >= 10.0821552277;
+0.00967530161142 size.L1.0 +122 mr.L1.0 >= 17.467256546;
+0.00967530161142 size.L2i.0 +122 mr.L2.0 >= 17.467256546;
+0.0068977996707 size.L1.0 +136 mr.L1.0 >= 17.9632339478;
+0.0068977996707 size.L2i.0 +136 mr.L2.0 >= 17.9632339478;
+0.00594380497933 size.L1.0 +246 mr.L1.0 >= 29.068977356;
+0.00594380497933 size.L2i.0 +246 mr.L2.0 >= 29.068977356;
+0.000713095068932 size.L1.0 +266 mr.L1.0 >= 27.0325698853;
+0.000713095068932 size.L2i.0 +266 mr.L2.0 >= 27.0325698853;
R21: +512 mr.L1.0 >= 50.6106338501;
R22: +512 mr.L2.0 >= 50.6106338501;
R23: +512 mr.L1.0 >= 50.6106414795;
R24: +512 mr.L2.0 >= 50.6106414795;
R25: +size.L1.0 >= 50;
R26: +size.L2i.0 >= 50;
R27: +size.L1.0 <= 2060;
R28: +size.L2i.0 <= 2060;
-size.L1.0 +size.L2i.0 >= 0;
+0.1 mr.L1.0 +9.8 mr.L2.0 -lat.0 = -0.1;
R31: +lat.0 <= 1.08939015865;
+0.0091015625 size.L1.0 +0.0006640625 size.L2i.0 -cost.0 = 0;
